
Gurobi 11.0.0 (linux64) logging started Tue Sep 17 02:54:45 2024

Set parameter LogFile to value "gurobi.log"
Set parameter InfUnbdInfo to value 1
Gurobi Optimizer version 11.0.0 build v11.0.0rc2 (linux64 - "Ubuntu 22.04.4 LTS")

CPU model: AMD EPYC 7V13 64-Core Processor, instruction set [SSE2|AVX|AVX2]
Thread count: 128 physical cores, 128 logical processors, using up to 32 threads

Optimize a model with 29 rows, 344 columns and 97 nonzeros
Model fingerprint: 0x3f117943
Model has 339 quadratic constraints
Model has 1 general constraint
Variable types: 91 continuous, 253 integer (0 binary)
Coefficient statistics:
  Matrix range     [1e+00, 1e+04]
  QMatrix range    [1e+00, 1e+04]
  QLMatrix range   [1e+00, 1e+04]
  Objective range  [1e+00, 1e+00]
  Bounds range     [1e+00, 6e+09]
  RHS range        [1e+00, 1e+00]
  QRHS range       [1e+00, 2e+06]
Warning: Model contains large bounds
         Consider reformulating model or setting NumericFocus parameter
         to avoid numerical issues.
Using branch priorities (all 0).
Presolve added 17 rows and 0 columns
Presolve removed 0 rows and 44 columns
Presolve time: 0.00s
Presolved: 1164 rows, 466 columns, 3024 nonzeros
Presolved model has 26 SOS constraint(s)
Presolved model has 197 bilinear constraint(s)
Warning: Model contains variables with very large bounds participating
         in product terms.
         Presolve was not able to compute smaller bounds for these variables.
         Consider bounding these variables or reformulating the model.


Solving non-convex MIQCP

Variable types: 130 continuous, 336 integer (130 binary)

Root relaxation: objective 8.321938e+02, 225 iterations, 0.00 seconds (0.00 work units)

    Nodes    |    Current Node    |     Objective Bounds      |     Work
 Expl Unexpl |  Obj  Depth IntInf | Incumbent    BestBd   Gap | It/Node Time

     0     0  832.19379    0  103          -  832.19379      -     -    0s
     0     0  832.19379    0  104          -  832.19379      -     -    0s
     0     0  832.19379    0  103          -  832.19379      -     -    0s
H    0     0                    3.600817e+08  832.19379   100%     -    0s
H    0     0                    1863710.0000  832.19379   100%     -    0s
H    0     0                    1623710.0000  832.19379   100%     -    0s
     0     0  997.26249    0  116 1623710.00  997.26249   100%     -    0s
H    0     0                    23704.000000  997.26249  95.8%     -    0s
H    0     0                    22904.000000  997.26249  95.6%     -    0s
     0     0 1000.42282    0  141 22904.0000 1000.42282  95.6%     -    0s
     0     0 1002.96662    0  132 22904.0000 1002.96662  95.6%     -    0s
     0     0 1014.55092    0  121 22904.0000 1014.55092  95.6%     -    0s
     0     0 1038.87749    0  162 22904.0000 1038.87749  95.5%     -    0s
     0     0 1050.77776    0   98 22904.0000 1050.77776  95.4%     -    0s
H    0     0                    22040.000000 1057.47617  95.2%     -    0s
H    0     0                    21240.000000 1057.47617  95.0%     -    0s
     0     0 1057.50014    0  143 21240.0000 1057.50014  95.0%     -    0s
     0     0 1100.83365    0  113 21240.0000 1100.83365  94.8%     -    0s
     0     0 1100.83365    0   65 21240.0000 1100.83365  94.8%     -    0s
H    0     0                    14840.000000 1100.83365  92.6%     -    0s
     0     0 1100.83365    0   83 14840.0000 1100.83365  92.6%     -    0s
     0     0 1100.83365    0   68 14840.0000 1100.83365  92.6%     -    0s
H    0     0                    14708.000000 1100.83365  92.5%     -    0s
H    0     0                    13908.000000 1100.83365  92.1%     -    0s
     0     0 1100.83365    0   58 13908.0000 1100.83365  92.1%     -    0s
     0     0 1100.83365    0   55 13908.0000 1100.83365  92.1%     -    0s
     0     0 1165.98539    0   89 13908.0000 1165.98539  91.6%     -    0s
     0     0 1166.11495    0  106 13908.0000 1166.11495  91.6%     -    0s
H    0     0                    8508.0000000 1173.99215  86.2%     -    0s
     0     0 1173.99215    0  112 8508.00000 1173.99215  86.2%     -    0s
     0     0 1199.39341    0   90 8508.00000 1199.39341  85.9%     -    0s
H    0     0                    4760.0000000 1201.02925  74.8%     -    0s
     0     0 1327.62070    0  103 4760.00000 1327.62070  72.1%     -    0s
     0     0 1327.62070    0   91 4760.00000 1327.62070  72.1%     -    0s
H    0     0                    4635.0000000 1327.62070  71.4%     -    0s
     0     0 2922.86059    0  100 4635.00000 2922.86059  36.9%     -    0s
     0     0 3360.86444    0  105 4635.00000 3360.86444  27.5%     -    1s
     0     0 3360.86444    0   71 4635.00000 3360.86444  27.5%     -    1s
     0     0 3360.86444    0   66 4635.00000 3360.86444  27.5%     -    1s
     0     0 3360.86444    0   56 4635.00000 3360.86444  27.5%     -    1s
     0     0 3360.86444    0   51 4635.00000 3360.86444  27.5%     -    1s
     0     0 3360.86444    0   74 4635.00000 3360.86444  27.5%     -    1s
     0     0 3360.86444    0   31 4635.00000 3360.86444  27.5%     -    1s
     0     0 3360.86444    0   75 4635.00000 3360.86444  27.5%     -    1s
     0     0 3360.86444    0   75 4635.00000 3360.86444  27.5%     -    1s
     0     0 3360.86444    0   49 4635.00000 3360.86444  27.5%     -    1s
     0     0 3360.86444    0   62 4635.00000 3360.86444  27.5%     -    1s
     0     0 3360.86444    0   63 4635.00000 3360.86444  27.5%     -    1s
H    0     0                    4600.0000000 3360.86444  26.9%     -    1s
     0     0 3360.86444    0   66 4600.00000 3360.86444  26.9%     -    1s
     0     0 3360.86444    0   57 4600.00000 3360.86444  26.9%     -    1s
H    0     0                    4560.0000000 3360.86444  26.3%     -    1s
     0     0 3360.86444    0   55 4560.00000 3360.86444  26.3%     -    1s
     0     0 3360.86444    0   62 4560.00000 3360.86444  26.3%     -    1s
     0     0 3373.93293    0   63 4560.00000 3373.93293  26.0%     -    1s
     0     0 3411.52170    0   63 4560.00000 3411.52170  25.2%     -    1s
     0     0 3470.00000    0   63 4560.00000 3470.00000  23.9%     -    1s
     0     0 3706.60000    0   27 4560.00000 3706.60000  18.7%     -    1s
     0     0 4557.60000    0   51 4560.00000 4557.60000  0.05%     -    1s

Cutting planes:
  MIR: 12
  Flow cover: 2
  RLT: 9

Explored 1 nodes (2375 simplex iterations) in 1.34 seconds (0.15 work units)
Thread count was 32 (of 128 available processors)

Solution count 10: 4560 4600 4635 ... 14708

Optimal solution found (tolerance 1.00e-10)
Best objective 4.560000000000e+03, best bound 4.560000000000e+03, gap 0.0000%
